(set-logic QF_S)
(declare-fun var0 () String)
(declare-fun var1 () String)
(declare-fun var2 () String)
(declare-fun var3 () String)
(declare-fun var4 () String)
(declare-fun var5 () String)
(declare-fun var6 () String)
(declare-fun var7 () String)
(declare-fun var8 () String)
(declare-fun var9 () String)
(declare-fun var10 () String)
(declare-fun var11 () String)
(declare-fun var12 () String)
(declare-fun var13 () String)
(declare-fun var14 () String)
(declare-fun var15 () String)
(declare-fun var16 () String)
(declare-fun var17 () String)
(declare-fun var18 () String)
(declare-fun var19 () String)
(declare-fun var20 () String)
(declare-fun var21 () String)
(declare-fun var22 () String)
(declare-fun var23 () String)
(declare-fun var24 () String)
(declare-fun var25 () String)
(declare-fun var26 () String)
(declare-fun var27 () String)
(declare-fun var28 () String)
(declare-fun var29 () String)
(declare-fun var30 () String)
(declare-fun var31 () String)
(declare-fun var32 () String)
(declare-fun var33 () String)
(declare-fun var34 () String)
(declare-fun var35 () String)
(declare-fun var36 () String)
(declare-fun var37 () String)
(declare-fun var38 () String)
(declare-fun var39 () String)
(declare-fun var40 () String)
(declare-fun var41 () String)
(declare-fun var42 () String)
(declare-fun var43 () String)
(declare-fun var44 () String)
(declare-fun var45 () String)
(declare-fun var46 () String)
(declare-fun var47 () String)
(declare-fun var48 () String)
(declare-fun var49 () String)
(declare-fun var50 () String)
(declare-fun var51 () String)
(declare-fun var52 () String)
(declare-fun var53 () String)
(declare-fun var54 () String)
(declare-fun var55 () String)
(declare-fun var56 () String)
(declare-fun var57 () String)
(declare-fun var58 () String)
(declare-fun var59 () String)
(declare-fun var60 () String)
(assert (= var0 (str.++ var1 var2)))
(assert (= var2 (str.++ var3 var4)))
(assert (= var4 (str.++ var5 var6)))
(assert (= var6 (str.++ var7 var8)))
(assert (= var8 (str.++ var9 var10)))
(assert (= var10 (str.++ var11 var12)))
(assert (= var12 (str.++ var13 var14)))
(assert (= var14 (str.++ var15 var16)))
(assert (= var16 (str.++ var17 var18)))
(assert (= var18 (str.++ var19 var20)))
(assert (= var20 (str.++ var21 var22)))
(assert (= var22 (str.++ var23 var24)))
(assert (= var24 (str.++ var25 var26)))
(assert (= var26 (str.++ var27 var28)))
(assert (= var28 (str.++ var29 var30)))
(assert (= var30 (str.++ var31 var32)))
(assert (= var32 (str.++ var33 var34)))
(assert (= var34 (str.++ var35 var36)))
(assert (= var36 (str.++ var37 var38)))
(assert (= var38 (str.++ var39 var40)))
(assert (= var40 (str.++ var41 var42)))
(assert (= var42 (str.++ var43 var44)))
(assert (= var44 (str.++ var45 var46)))
(assert (= var46 (str.++ var47 var48)))
(assert (= var48 (str.++ var49 var50)))
(assert (= var50 (str.++ var51 var52)))
(assert (= var52 (str.++ var53 var54)))
(assert (= var54 (str.++ var55 var56)))
(assert (= var56 (str.++ var57 var58)))
(assert (= var58 (str.++ var59 var60)))
(assert (= var0 "solution"))
(assert (= "*" (str.at var52 277)))
(assert (= "I" (str.at var31 920)))
(assert (= "~" (str.at var12 813)))
(assert (= "'" (str.at var57 327)))
(assert (= "J" (str.at var5 252)))
(assert (= "*" (str.at var33 85)))
(assert (= "B" (str.at var18 519)))
(assert (= "S" (str.at var11 523)))
(assert (= "^" (str.at var56 297)))
(assert (= "y" (str.at var48 539)))
(assert (= "Y" (str.at var59 247)))
(assert (= "6" (str.at var30 209)))
(assert (= "A" (str.at var30 384)))
(assert (= ")" (str.at var10 719)))
(assert (= "'" (str.at var9 68)))
(assert (= "Q" (str.at var32 299)))
(assert (= ">" (str.at var33 236)))
(assert (= "y" (str.at var29 657)))
(assert (= "1" (str.at var30 708)))
(assert (= ">" (str.at var49 891)))
(assert (= "F" (str.at var55 710)))
(assert (= "V" (str.at var52 795)))
(assert (= "5" (str.at var38 14)))
(assert (= "&" (str.at var47 42)))
(assert (= ")" (str.at var51 454)))
(assert (= "F" (str.at var3 49)))
(assert (= "q" (str.at var36 855)))
(assert (= "'" (str.at var56 405)))
(assert (= "J" (str.at var58 45)))
(assert (= "O" (str.at var34 194)))
(assert (= "5" (str.at var53 767)))
(assert (= "i" (str.at var14 584)))
(assert (= "d" (str.at var20 606)))
(assert (= "w" (str.at var24 277)))
(assert (= "?" (str.at var1 54)))
(assert (= "," (str.at var33 501)))
(assert (= "." (str.at var1 842)))
(assert (= "L" (str.at var44 283)))
(assert (= "<" (str.at var29 396)))
(assert (= "u" (str.at var36 893)))
(assert (= "o" (str.at var17 786)))
(assert (= "j" (str.at var52 158)))
(assert (= "P" (str.at var32 362)))
(assert (= "I" (str.at var6 124)))
(assert (= "3" (str.at var32 288)))
(assert (= "." (str.at var44 92)))
(assert (= "8" (str.at var43 220)))
(assert (= "v" (str.at var43 734)))
(assert (= "." (str.at var33 466)))
(assert (= "g" (str.at var29 926)))
(assert (= "G" (str.at var37 36)))
(assert (= "Y" (str.at var10 969)))
(assert (= "e" (str.at var1 667)))
(assert (= "v" (str.at var44 593)))
(assert (= "-" (str.at var28 631)))
(assert (= "/" (str.at var8 73)))
(assert (= "q" (str.at var52 955)))
(assert (= "F" (str.at var7 319)))
(assert (= "B" (str.at var29 640)))
(assert (= "=" (str.at var19 814)))
(assert (= "~" (str.at var2 732)))
(assert (= "6" (str.at var0 955)))
(assert (= "v" (str.at var45 117)))
(assert (= "J" (str.at var3 674)))
(assert (= "1" (str.at var46 722)))
(assert (= "2" (str.at var48 426)))
(assert (= "H" (str.at var8 199)))
(assert (= "D" (str.at var2 365)))
(assert (= "X" (str.at var6 372)))
(assert (= "/" (str.at var11 816)))
(assert (= "`" (str.at var6 993)))
(assert (= "H" (str.at var5 207)))
(assert (= "<" (str.at var19 402)))
(assert (= "Z" (str.at var0 347)))
(assert (= "N" (str.at var42 199)))
(assert (= "h" (str.at var38 374)))
(assert (= "B" (str.at var50 773)))
(assert (= "#" (str.at var26 606)))
(assert (= "Z" (str.at var8 80)))
(assert (= "a" (str.at var59 669)))
(assert (= "l" (str.at var1 732)))
(assert (= ":" (str.at var15 230)))
(assert (= "7" (str.at var42 502)))
(assert (= "L" (str.at var16 486)))
(assert (= "z" (str.at var57 591)))
(assert (= "L" (str.at var39 535)))
(assert (= "X" (str.at var11 417)))
(assert (= "-" (str.at var16 494)))
(assert (= "l" (str.at var8 864)))
(assert (= "[" (str.at var59 999)))
(assert (= "p" (str.at var32 476)))
(assert (= "t" (str.at var48 39)))
(assert (= "X" (str.at var40 816)))
(assert (= "u" (str.at var57 682)))
(assert (= "B" (str.at var60 163)))
(assert (= "H" (str.at var21 163)))
(assert (= "s" (str.at var60 861)))
(assert (= "G" (str.at var28 663)))
(assert (= "O" (str.at var6 171)))
(assert (= """" (str.at var31 965)))
(assert (= "~" (str.at var43 187)))
(assert (= "_" (str.at var55 532)))
(assert (= "J" (str.at var22 756)))
(assert (= ":" (str.at var2 822)))
(assert (= "S" (str.at var43 921)))
(assert (= "1" (str.at var21 523)))
(assert (= "Z" (str.at var53 442)))
(assert (= "." (str.at var29 643)))
(assert (= "C" (str.at var46 387)))
(assert (= "G" (str.at var52 464)))
(assert (= "2" (str.at var17 567)))
(assert (= "j" (str.at var2 708)))
(assert (= "l" (str.at var13 970)))
(assert (= "K" (str.at var2 287)))
(assert (= """" (str.at var45 477)))
(assert (= "j" (str.at var19 299)))
(assert (= "K" (str.at var12 448)))
(assert (= "<" (str.at var49 556)))
(assert (= "P" (str.at var7 472)))
(assert (= "F" (str.at var57 838)))
(assert (= "j" (str.at var13 447)))
(assert (= "=" (str.at var6 85)))
(assert (= "-" (str.at var16 187)))
(assert (= "^" (str.at var55 143)))
(assert (= "I" (str.at var60 22)))
(assert (= "W" (str.at var51 194)))
(assert (= "7" (str.at var14 606)))
(assert (= """" (str.at var38 842)))
(assert (= "." (str.at var20 894)))
(assert (= "B" (str.at var37 256)))
(assert (= "\\" (str.at var1 934)))
(assert (= "N" (str.at var47 350)))
(assert (= "/" (str.at var8 306)))
(assert (= "~" (str.at var20 173)))
(assert (= "<" (str.at var42 306)))
(assert (= "h" (str.at var42 662)))
(assert (= "|" (str.at var55 74)))
(assert (= "/" (str.at var14 973)))
(assert (= "Y" (str.at var21 93)))
(assert (= "S" (str.at var60 268)))
(assert (= "A" (str.at var18 534)))
(assert (= "2" (str.at var6 890)))
(assert (= "{" (str.at var45 615)))
(assert (= "{" (str.at var29 198)))
(assert (= "u" (str.at var9 433)))
(assert (= "I" (str.at var50 665)))
(assert (= "_" (str.at var17 489)))
(assert (= "\\" (str.at var20 129)))
(assert (= "`" (str.at var60 483)))
(assert (= "z" (str.at var23 578)))
(assert (= "i" (str.at var55 424)))
(assert (= "@" (str.at var22 908)))
(assert (= "-" (str.at var0 647)))
(assert (= "b" (str.at var30 526)))
(assert (= "\\" (str.at var44 190)))
(assert (= "8" (str.at var44 646)))
(assert (= "V" (str.at var39 207)))
(assert (= "x" (str.at var33 518)))
(assert (= "*" (str.at var47 396)))
(assert (= "t" (str.at var31 508)))
(assert (= "g" (str.at var43 126)))
(assert (= "d" (str.at var29 196)))
(assert (= "E" (str.at var50 128)))
(assert (= "&" (str.at var16 947)))
(assert (= "Y" (str.at var20 273)))
(assert (= "&" (str.at var25 589)))
(assert (= "r" (str.at var14 808)))
(assert (= "`" (str.at var9 824)))
(assert (= "9" (str.at var58 176)))
(assert (= "3" (str.at var44 316)))
(assert (= ":" (str.at var60 102)))
(assert (= "8" (str.at var22 90)))
(assert (= "-" (str.at var15 333)))
(assert (= """" (str.at var37 423)))
(assert (= "7" (str.at var59 19)))
(assert (= "5" (str.at var57 734)))
(assert (= "<" (str.at var20 845)))
(assert (= "o" (str.at var8 567)))
(assert (= "%" (str.at var42 820)))
(assert (= "E" (str.at var11 822)))
(assert (= "%" (str.at var55 3)))
(assert (= "3" (str.at var13 570)))
(assert (= """" (str.at var2 717)))
(assert (= "o" (str.at var6 587)))
(assert (= "U" (str.at var29 499)))
(assert (= "Y" (str.at var11 735)))
(assert (= "T" (str.at var1 262)))
(assert (= "M" (str.at var35 966)))
(assert (= "j" (str.at var26 619)))
(assert (= "0" (str.at var19 955)))
(assert (= "!" (str.at var38 456)))
(assert (= "Q" (str.at var41 729)))
(assert (= "u" (str.at var3 279)))
(assert (= "H" (str.at var19 788)))
(assert (= "$" (str.at var28 331)))
(assert (= "F" (str.at var11 338)))
(assert (= "#" (str.at var24 578)))
(assert (= "}" (str.at var26 353)))
(assert (= "." (str.at var4 735)))
(assert (= "&" (str.at var9 398)))
(assert (= "_" (str.at var5 300)))
(assert (= "D" (str.at var32 255)))
(assert (= "0" (str.at var24 436)))
(assert (= "~" (str.at var38 948)))
(assert (= "`" (str.at var24 474)))
(assert (= "Y" (str.at var5 37)))
(assert (= "v" (str.at var19 238)))
(assert (= ")" (str.at var27 932)))
(assert (= "v" (str.at var54 802)))
(assert (= "o" (str.at var16 501)))
(assert (= "k" (str.at var56 85)))
(assert (= "*" (str.at var32 148)))
(assert (= "`" (str.at var19 186)))
(assert (= ";" (str.at var40 293)))
(assert (= "M" (str.at var59 313)))
(assert (= "Y" (str.at var28 56)))
(assert (= ">" (str.at var0 333)))
(assert (= "2" (str.at var31 980)))
(assert (= "B" (str.at var2 915)))
(assert (= "~" (str.at var4 738)))
(assert (= "T" (str.at var1 100)))
(assert (= "Z" (str.at var33 228)))
(assert (= "[" (str.at var11 74)))
(assert (= "]" (str.at var50 875)))
(assert (= "e" (str.at var56 663)))
(assert (= "I" (str.at var60 446)))
(assert (= "&" (str.at var30 579)))
(assert (= "l" (str.at var13 754)))
(assert (= "B" (str.at var9 389)))
(assert (= "8" (str.at var17 276)))
(assert (= "(" (str.at var36 835)))
(assert (= "4" (str.at var58 309)))
(assert (= "u" (str.at var34 549)))
(assert (= "V" (str.at var51 736)))
(assert (= "d" (str.at var46 823)))
(assert (= """" (str.at var32 733)))
(assert (= "~" (str.at var14 390)))
(assert (= "N" (str.at var9 84)))
(assert (= "*" (str.at var46 403)))
(assert (= "f" (str.at var60 501)))
(assert (= "," (str.at var53 141)))
(assert (= "8" (str.at var25 839)))
(assert (= "p" (str.at var38 477)))
(assert (= "v" (str.at var38 449)))
(assert (= "4" (str.at var20 64)))
(assert (= "k" (str.at var34 636)))
(assert (= "x" (str.at var42 528)))
(assert (= "3" (str.at var25 493)))
(assert (= ")" (str.at var15 968)))
(assert (= "P" (str.at var22 677)))
(assert (= "b" (str.at var15 495)))
(assert (= "G" (str.at var11 571)))
(assert (= "q" (str.at var0 549)))
(assert (= "h" (str.at var29 459)))
(assert (= "-" (str.at var34 900)))
(assert (= "0" (str.at var34 521)))
(assert (= "y" (str.at var10 587)))
(assert (= "J" (str.at var45 271)))
(assert (= "H" (str.at var29 485)))
(assert (= "c" (str.at var10 358)))
(assert (= "," (str.at var30 529)))
(assert (= "I" (str.at var18 826)))
(assert (= "'" (str.at var0 79)))
(assert (= "(" (str.at var37 369)))
(assert (= "p" (str.at var19 279)))
(assert (= "M" (str.at var55 344)))
(assert (= "S" (str.at var50 768)))
(assert (= "M" (str.at var2 529)))
(assert (= "r" (str.at var22 24)))
(assert (= "'" (str.at var44 382)))
(assert (= "q" (str.at var29 366)))
(assert (= "E" (str.at var35 413)))
(assert (= "I" (str.at var59 831)))
(assert (= "4" (str.at var7 229)))
(assert (= "n" (str.at var47 222)))
(assert (= "-" (str.at var46 2)))
(assert (= "V" (str.at var56 344)))
(assert (= "=" (str.at var44 269)))
(assert (= "h" (str.at var15 568)))
(assert (= "Z" (str.at var45 809)))
(assert (= "W" (str.at var13 928)))
(assert (= "y" (str.at var9 239)))
(assert (= "4" (str.at var24 638)))
(assert (= "b" (str.at var8 349)))
(assert (= "i" (str.at var23 168)))
(assert (= "3" (str.at var54 449)))
(assert (= "R" (str.at var0 239)))
(assert (= "S" (str.at var3 907)))
(assert (= "b" (str.at var18 7)))
(assert (= "4" (str.at var51 383)))
(assert (= "_" (str.at var25 299)))
(assert (= "j" (str.at var58 352)))
(assert (= "_" (str.at var44 386)))
(assert (= "p" (str.at var48 646)))
(assert (= "e" (str.at var19 57)))
(assert (= "T" (str.at var3 85)))
(assert (= "g" (str.at var42 96)))
(assert (= "T" (str.at var55 79)))
(assert (= "M" (str.at var8 224)))
(assert (= "B" (str.at var13 121)))
(assert (= "B" (str.at var53 315)))
(assert (= "F" (str.at var10 647)))
(assert (= "r" (str.at var46 19)))
(assert (= "8" (str.at var17 726)))
(assert (= "e" (str.at var20 477)))
(assert (= "U" (str.at var54 301)))
(assert (= "6" (str.at var36 914)))
(assert (= "t" (str.at var5 761)))
(assert (= "k" (str.at var18 435)))
(assert (= "u" (str.at var12 495)))
(assert (= "[" (str.at var39 870)))
(assert (= ")" (str.at var19 64)))
(assert (= "&" (str.at var7 552)))
(assert (= "<" (str.at var57 812)))
(assert (= "i" (str.at var1 878)))
(assert (= "`" (str.at var41 108)))
(assert (= "p" (str.at var31 233)))
(assert (= "U" (str.at var46 603)))
(assert (= "Q" (str.at var9 2)))
(assert (= "6" (str.at var16 147)))
(assert (= ">" (str.at var43 561)))
(assert (= "<" (str.at var14 217)))
(assert (= "J" (str.at var39 863)))
(assert (= "a" (str.at var57 395)))
(assert (= "(" (str.at var18 824)))
(assert (= "t" (str.at var42 379)))
(assert (= "6" (str.at var18 619)))
(assert (= "a" (str.at var35 700)))
(assert (= "M" (str.at var29 445)))
(assert (= "*" (str.at var3 847)))
(assert (= "@" (str.at var33 923)))
(assert (= "s" (str.at var16 869)))
(assert (= ">" (str.at var31 37)))
(assert (= "$" (str.at var28 860)))
(assert (= ">" (str.at var30 360)))
(assert (= "-" (str.at var55 465)))
(assert (= "(" (str.at var60 667)))
(assert (= "a" (str.at var17 208)))
(assert (= "K" (str.at var25 717)))
(assert (= "E" (str.at var44 573)))
(assert (= "T" (str.at var0 853)))
(assert (= "@" (str.at var56 676)))
(assert (= "]" (str.at var36 182)))
(assert (= "]" (str.at var13 539)))
(assert (= "v" (str.at var52 781)))
(assert (= "m" (str.at var20 699)))
(assert (= "U" (str.at var28 29)))
(assert (= "g" (str.at var40 666)))
(assert (= "O" (str.at var23 252)))
(assert (= "r" (str.at var46 729)))
(assert (= "R" (str.at var33 417)))
(assert (= "X" (str.at var46 478)))
(assert (= "1" (str.at var2 296)))
(assert (= "5" (str.at var35 124)))
(assert (= ":" (str.at var51 231)))
(assert (= "I" (str.at var10 362)))
(assert (= ":" (str.at var41 634)))
(assert (= "`" (str.at var53 998)))
(assert (= "D" (str.at var18 499)))
(assert (= """" (str.at var14 432)))
(assert (= ":" (str.at var31 526)))
(assert (= "j" (str.at var15 672)))
(assert (= "+" (str.at var58 247)))
(assert (= "+" (str.at var19 623)))
(assert (= "T" (str.at var13 433)))
(assert (= "[" (str.at var59 817)))
(assert (= "D" (str.at var40 86)))
(assert (= "1" (str.at var36 824)))
(assert (= "T" (str.at var50 915)))
(assert (= "=" (str.at var59 906)))
(assert (= "{" (str.at var24 763)))
(assert (= "o" (str.at var13 41)))
(assert (= ">" (str.at var39 511)))
(assert (= "A" (str.at var10 154)))
(assert (= "a" (str.at var40 726)))
(assert (= "#" (str.at var19 525)))
(assert (= "J" (str.at var34 421)))
(assert (= "C" (str.at var9 520)))
(assert (= ")" (str.at var36 375)))
(assert (= "U" (str.at var11 540)))
(assert (= "V" (str.at var24 864)))
(assert (= "$" (str.at var20 920)))
(assert (= "S" (str.at var49 569)))
(assert (= "n" (str.at var7 176)))
(assert (= "x" (str.at var28 655)))
(assert (= "|" (str.at var25 381)))
(assert (= "6" (str.at var36 124)))
(assert (= "{" (str.at var5 249)))
(assert (= "~" (str.at var58 413)))
(assert (= "|" (str.at var37 775)))
(assert (= "c" (str.at var27 128)))
(assert (= "'" (str.at var32 550)))
(assert (= "G" (str.at var28 464)))
(assert (= "D" (str.at var60 836)))
(assert (= "[" (str.at var11 853)))
(assert (= "k" (str.at var46 174)))
(assert (= "]" (str.at var56 295)))
(assert (= "Q" (str.at var15 589)))
(assert (= "n" (str.at var47 531)))
(assert (= "Z" (str.at var54 604)))
(assert (= "F" (str.at var20 401)))
(assert (= "." (str.at var37 952)))
(assert (= "^" (str.at var19 73)))
(assert (= "*" (str.at var36 665)))
(assert (= "u" (str.at var19 636)))
(assert (= "}" (str.at var60 682)))
(assert (= "Z" (str.at var9 70)))
(assert (= "'" (str.at var54 649)))
(assert (= "F" (str.at var41 451)))
(assert (= "^" (str.at var14 424)))
(assert (= "U" (str.at var35 792)))
(assert (= "D" (str.at var51 42)))
(assert (= "9" (str.at var16 523)))
(assert (= "m" (str.at var42 794)))
(assert (= "_" (str.at var50 79)))
(assert (= "p" (str.at var1 640)))
(assert (= "J" (str.at var10 530)))
(assert (= "4" (str.at var58 694)))
(assert (= "+" (str.at var48 728)))
(assert (= "K" (str.at var34 835)))
(assert (= "%" (str.at var54 582)))
(assert (= "#" (str.at var39 414)))
(assert (= "0" (str.at var34 737)))
(assert (= "t" (str.at var34 534)))
(assert (= "L" (str.at var7 406)))
(assert (= "+" (str.at var16 103)))
(assert (= "#" (str.at var14 741)))
(assert (= "e" (str.at var43 189)))
(assert (= "M" (str.at var56 962)))
(assert (= "\\" (str.at var33 101)))
(assert (= "\\" (str.at var42 238)))
(assert (= "5" (str.at var0 183)))
(assert (= "p" (str.at var58 901)))
(assert (= "7" (str.at var59 89)))
(assert (= "!" (str.at var19 23)))
(assert (= "5" (str.at var38 216)))
(assert (= "G" (str.at var54 379)))
(assert (= "p" (str.at var46 979)))
(assert (= "n" (str.at var8 96)))
(assert (= "v" (str.at var59 837)))
(assert (= "=" (str.at var33 566)))
(assert (= "_" (str.at var56 95)))
(assert (= """" (str.at var22 790)))
(assert (= "W" (str.at var14 715)))
(assert (= "/" (str.at var35 736)))
(assert (= "O" (str.at var6 347)))
(assert (= "2" (str.at var22 913)))
(assert (= "k" (str.at var0 49)))
(assert (= "q" (str.at var44 991)))
(assert (= "s" (str.at var3 68)))
(assert (= "Z" (str.at var38 171)))
(assert (= "9" (str.at var37 88)))
(assert (= "<" (str.at var54 615)))
(assert (= "@" (str.at var16 442)))
(assert (= "F" (str.at var23 35)))
(assert (= "\\" (str.at var24 60)))
(assert (= "$" (str.at var24 522)))
(assert (= "P" (str.at var53 305)))
(assert (= "K" (str.at var58 332)))
(assert (= "P" (str.at var44 183)))
(assert (= "1" (str.at var2 779)))
(assert (= "=" (str.at var30 328)))
(assert (= "Q" (str.at var25 608)))
(assert (= "*" (str.at var18 102)))
(assert (= "l" (str.at var41 262)))
(assert (= "0" (str.at var4 461)))
(assert (= "W" (str.at var19 490)))
(assert (= "s" (str.at var12 961)))
(assert (= "d" (str.at var19 7)))
(assert (= "&" (str.at var3 578)))
(assert (= "y" (str.at var42 481)))
(assert (= "#" (str.at var18 676)))
(assert (= "c" (str.at var3 683)))
(assert (= "&" (str.at var36 15)))
(assert (= "L" (str.at var24 67)))
(assert (= "S" (str.at var36 277)))
(assert (= "i" (str.at var19 137)))
(assert (= "p" (str.at var22 283)))
(assert (= "2" (str.at var54 921)))
(assert (= "}" (str.at var58 496)))
(assert (= "R" (str.at var6 992)))
(assert (= "Q" (str.at var5 211)))
(assert (= "u" (str.at var43 624)))
(assert (= "\\" (str.at var4 269)))
(assert (= "U" (str.at var21 410)))
(assert (= "P" (str.at var3 177)))
(assert (= "*" (str.at var47 855)))
(assert (= "S" (str.at var37 75)))
(assert (= "z" (str.at var10 768)))
(assert (= "p" (str.at var55 105)))
(assert (= "0" (str.at var11 486)))
(assert (= "v" (str.at var3 46)))
(assert (= "%" (str.at var19 475)))
(assert (= "z" (str.at var15 217)))
(assert (= "o" (str.at var25 108)))
(assert (= ":" (str.at var60 39)))
(assert (= "%" (str.at var12 643)))
(assert (= "F" (str.at var0 756)))
(assert (= "`" (str.at var47 986)))
(assert (= "]" (str.at var40 842)))
(assert (= "w" (str.at var42 623)))
(assert (= "?" (str.at var17 3)))
(assert (= "y" (str.at var43 418)))
(assert (= "z" (str.at var29 220)))
(assert (= "f" (str.at var7 68)))
(assert (= "b" (str.at var34 860)))
(assert (= """" (str.at var6 24)))
(assert (= "`" (str.at var31 743)))
(assert (= "E" (str.at var20 503)))
(assert (= "\\" (str.at var59 739)))
(assert (= "+" (str.at var36 240)))
(assert (= "Y" (str.at var6 109)))
(assert (= "u" (str.at var8 407)))
(assert (= "J" (str.at var44 638)))
(assert (= "d" (str.at var26 47)))
(assert (= "/" (str.at var45 417)))
(assert (= "^" (str.at var13 953)))
(assert (= "]" (str.at var28 823)))
(assert (= "3" (str.at var30 39)))
(assert (= "*" (str.at var21 364)))
(assert (= "l" (str.at var51 852)))
(assert (= ")" (str.at var37 382)))
(assert (= "S" (str.at var20 905)))
(assert (= "1" (str.at var56 43)))
(assert (= "{" (str.at var50 740)))
(assert (= "D" (str.at var9 836)))
(assert (= "Q" (str.at var32 875)))
(assert (= "|" (str.at var57 412)))
(assert (= "|" (str.at var18 992)))
(assert (= "Z" (str.at var47 626)))
(assert (= "L" (str.at var12 855)))
(assert (= "*" (str.at var35 508)))
(assert (= "-" (str.at var32 126)))
(assert (= "1" (str.at var58 169)))
(assert (= "p" (str.at var47 871)))
(assert (= "'" (str.at var36 152)))
(assert (= "|" (str.at var42 863)))
(assert (= ":" (str.at var40 104)))
(assert (= "_" (str.at var8 496)))
(assert (= "U" (str.at var49 642)))
(assert (= "6" (str.at var10 549)))
(assert (= "k" (str.at var43 810)))
(assert (= "&" (str.at var29 827)))
(assert (= "B" (str.at var57 384)))
(assert (= "H" (str.at var49 795)))
(assert (= "B" (str.at var53 346)))
(assert (= "*" (str.at var25 200)))
(assert (= "F" (str.at var38 550)))
(assert (= "o" (str.at var23 54)))
(assert (= "F" (str.at var11 391)))
(assert (= "f" (str.at var52 344)))
(assert (= "'" (str.at var57 603)))
(assert (= "." (str.at var39 317)))
(assert (= "6" (str.at var8 487)))
(assert (= "/" (str.at var39 676)))
(assert (= "]" (str.at var58 58)))
(assert (= "`" (str.at var32 553)))
(assert (= "6" (str.at var59 962)))
(assert (= "3" (str.at var30 837)))
(assert (= "d" (str.at var35 8)))
(assert (= "7" (str.at var7 224)))
(assert (= "&" (str.at var29 865)))
(assert (= "[" (str.at var54 598)))
(assert (= "^" (str.at var5 228)))
(assert (= "8" (str.at var55 175)))
(assert (= "9" (str.at var60 971)))
(assert (= "K" (str.at var51 570)))
(assert (= "[" (str.at var12 201)))
(assert (= "H" (str.at var38 901)))
(assert (= ";" (str.at var3 373)))
(assert (= ">" (str.at var53 472)))
(assert (= "q" (str.at var26 107)))
(assert (= "(" (str.at var9 483)))
(assert (= "3" (str.at var14 922)))
(assert (= "I" (str.at var33 353)))
(assert (= "j" (str.at var28 611)))
(assert (= "d" (str.at var37 426)))
(assert (= "W" (str.at var2 715)))
(assert (= "x" (str.at var23 766)))
(assert (= "P" (str.at var3 322)))
(assert (= "i" (str.at var20 865)))
(assert (= "M" (str.at var31 629)))
(assert (= "#" (str.at var4 925)))
(assert (= "$" (str.at var32 9)))
(assert (= "Z" (str.at var35 452)))
(assert (= "w" (str.at var11 601)))
(assert (= "s" (str.at var51 38)))
(assert (= "#" (str.at var12 657)))
(assert (= "C" (str.at var36 193)))
(assert (= "Q" (str.at var2 285)))
(assert (= "J" (str.at var52 212)))
(assert (= "6" (str.at var59 346)))
(assert (= "H" (str.at var31 191)))
(assert (= "o" (str.at var42 805)))
(assert (= "(" (str.at var59 745)))
(assert (= "R" (str.at var35 242)))
(assert (= "Q" (str.at var6 931)))
(assert (= "b" (str.at var42 114)))
(assert (= "F" (str.at var40 250)))
(assert (= "@" (str.at var21 605)))
(assert (= "i" (str.at var7 661)))
(assert (= "F" (str.at var57 54)))
(assert (= "Y" (str.at var39 879)))
(assert (= "r" (str.at var37 496)))
(assert (= """" (str.at var35 173)))
(assert (= "R" (str.at var11 341)))
(assert (= ")" (str.at var2 479)))
(assert (= "C" (str.at var21 616)))
(assert (= "-" (str.at var47 282)))
(assert (= "N" (str.at var20 516)))
(assert (= "g" (str.at var50 830)))
(assert (= "V" (str.at var39 70)))
(assert (= "6" (str.at var10 30)))
(assert (= ">" (str.at var35 277)))
(assert (= "$" (str.at var30 832)))
(assert (= ":" (str.at var27 144)))
(assert (= "%" (str.at var25 601)))
(assert (= ")" (str.at var14 690)))
(assert (= "=" (str.at var47 120)))
(assert (= "y" (str.at var27 50)))
(assert (= ":" (str.at var42 686)))
(assert (= "g" (str.at var37 655)))
(assert (= "N" (str.at var46 135)))
(assert (= "[" (str.at var51 238)))
(assert (= "#" (str.at var11 851)))
(assert (= "W" (str.at var24 636)))
(assert (= "$" (str.at var1 392)))
(assert (= "Y" (str.at var26 509)))
(assert (= "X" (str.at var21 550)))
(assert (= "G" (str.at var54 780)))
(assert (= "~" (str.at var19 470)))
(assert (= "E" (str.at var27 14)))
(assert (= "y" (str.at var33 931)))
(assert (= "i" (str.at var49 680)))
(assert (= "H" (str.at var20 799)))
(assert (= "[" (str.at var35 385)))
(assert (= "T" (str.at var12 528)))
(assert (= "#" (str.at var42 369)))
(assert (= "z" (str.at var30 860)))
(assert (= "^" (str.at var25 392)))
(assert (= "I" (str.at var48 49)))
(assert (= "z" (str.at var5 783)))
(assert (= "U" (str.at var15 955)))
(assert (= "U" (str.at var43 304)))
(assert (= "`" (str.at var1 572)))
(assert (= "j" (str.at var49 935)))
(assert (= "y" (str.at var32 394)))
(assert (= "P" (str.at var60 797)))
(assert (= "L" (str.at var46 570)))
(assert (= "{" (str.at var33 848)))
(assert (= "&" (str.at var28 600)))
(assert (= "Z" (str.at var2 303)))
(assert (= "`" (str.at var37 440)))
(assert (= "*" (str.at var21 90)))
(assert (= """" (str.at var11 293)))
(assert (= "3" (str.at var34 830)))
(assert (= "M" (str.at var49 881)))
(assert (= "n" (str.at var36 82)))
(assert (= "P" (str.at var34 132)))
(assert (= "<" (str.at var57 752)))
(assert (= "|" (str.at var21 593)))
(assert (= "y" (str.at var31 772)))
(assert (= "~" (str.at var16 578)))
(assert (= "%" (str.at var53 396)))
(assert (= "3" (str.at var36 881)))
(assert (= "3" (str.at var56 590)))
(assert (= "h" (str.at var51 368)))
(assert (= "1" (str.at var54 987)))
(assert (= "?" (str.at var47 340)))
(assert (= "W" (str.at var17 2)))
(assert (= "?" (str.at var51 980)))
(assert (= "u" (str.at var16 564)))
(assert (= "o" (str.at var52 898)))
(assert (= "6" (str.at var56 339)))
(assert (= "C" (str.at var16 529)))
(assert (= "k" (str.at var42 917)))
(assert (= "j" (str.at var45 384)))
(assert (= "d" (str.at var9 85)))
(assert (= "R" (str.at var5 398)))
(assert (= "F" (str.at var7 475)))
(assert (= "<" (str.at var27 715)))
(assert (= "!" (str.at var36 417)))
(assert (= "z" (str.at var59 257)))
(assert (= "]" (str.at var52 652)))
(assert (= "+" (str.at var38 645)))
(assert (= "%" (str.at var49 280)))
(assert (= "$" (str.at var43 671)))
(assert (= "j" (str.at var29 999)))
(assert (= "&" (str.at var29 37)))
(assert (= "t" (str.at var16 270)))
(assert (= "C" (str.at var0 739)))
(assert (= "^" (str.at var5 167)))
(assert (= "(" (str.at var49 132)))
(assert (= "`" (str.at var3 473)))
(assert (= "$" (str.at var27 403)))
(assert (= "b" (str.at var20 35)))
(assert (= "~" (str.at var44 874)))
(assert (= "S" (str.at var50 721)))
(assert (= "'" (str.at var8 961)))
(assert (= "a" (str.at var26 927)))
(assert (= "5" (str.at var15 516)))
(assert (= "M" (str.at var33 151)))
(assert (= "U" (str.at var11 860)))
(assert (= "}" (str.at var24 590)))
(assert (= "A" (str.at var15 316)))
(assert (= ")" (str.at var28 435)))
(assert (= "[" (str.at var58 608)))
(assert (= "B" (str.at var23 1)))
(assert (= "Y" (str.at var40 705)))
(assert (= "d" (str.at var52 443)))
(assert (= "R" (str.at var6 578)))
(assert (= "C" (str.at var53 423)))
(assert (= "J" (str.at var11 139)))
(assert (= "d" (str.at var7 248)))
(assert (= """" (str.at var21 827)))
(assert (= "=" (str.at var41 731)))
(assert (= ")" (str.at var37 33)))
(assert (= "]" (str.at var51 18)))
(assert (= "h" (str.at var36 313)))
(assert (= "X" (str.at var6 79)))
(assert (= ":" (str.at var9 447)))
(assert (= "D" (str.at var5 22)))
(assert (= "[" (str.at var50 598)))
(assert (= "1" (str.at var50 352)))
(assert (= "a" (str.at var53 488)))
(assert (= "_" (str.at var39 323)))
(assert (= "$" (str.at var4 69)))
(assert (= "3" (str.at var2 172)))
(assert (= "s" (str.at var50 275)))
(assert (= ":" (str.at var29 101)))
(assert (= "W" (str.at var1 365)))
(assert (= "1" (str.at var39 745)))
(assert (= "e" (str.at var2 455)))
(assert (= "7" (str.at var46 861)))
(assert (= "P" (str.at var22 491)))
(assert (= "W" (str.at var22 797)))
(assert (= "w" (str.at var49 727)))
(assert (= "9" (str.at var55 866)))
(assert (= "z" (str.at var14 610)))
(assert (= "*" (str.at var57 728)))
(assert (= "d" (str.at var9 692)))
(assert (= "G" (str.at var51 629)))
(assert (= "o" (str.at var45 724)))
(assert (= "U" (str.at var27 370)))
(assert (= "i" (str.at var3 621)))
(assert (= "y" (str.at var32 706)))
(assert (= "S" (str.at var36 946)))
(assert (= "R" (str.at var35 315)))
(assert (= "R" (str.at var29 931)))
(assert (= "0" (str.at var52 236)))
(assert (= """" (str.at var29 546)))
(assert (= "p" (str.at var14 373)))
(assert (= "c" (str.at var60 67)))
(assert (= "h" (str.at var49 515)))
(assert (= "v" (str.at var34 664)))
(assert (= "C" (str.at var24 614)))
(assert (= "\\" (str.at var14 410)))
(assert (= "[" (str.at var49 110)))
(assert (= "]" (str.at var32 984)))
(assert (= "'" (str.at var26 37)))
(assert (= "!" (str.at var12 692)))
(assert (= "]" (str.at var22 31)))
(assert (= "L" (str.at var14 772)))
(assert (= "*" (str.at var41 661)))
(assert (= "D" (str.at var35 575)))
(assert (= "s" (str.at var26 416)))
(assert (= "+" (str.at var6 908)))
(assert (= "t" (str.at var53 702)))
(assert (= "5" (str.at var32 240)))
(assert (= "n" (str.at var53 158)))
(assert (= "2" (str.at var33 734)))
(assert (= "&" (str.at var6 385)))
(assert (= "r" (str.at var23 403)))
(assert (= "t" (str.at var42 80)))
(assert (= "R" (str.at var25 332)))
(assert (= "3" (str.at var39 899)))
(assert (= "3" (str.at var14 266)))
(assert (= "0" (str.at var23 756)))
(assert (= "f" (str.at var13 435)))
(assert (= "G" (str.at var49 90)))
(assert (= "o" (str.at var49 212)))
(assert (= "*" (str.at var46 817)))
(assert (= "K" (str.at var34 351)))
(assert (= "Y" (str.at var9 190)))
(assert (= "/" (str.at var59 43)))
(assert (= "g" (str.at var47 779)))
(assert (= "C" (str.at var51 786)))
(assert (= "%" (str.at var21 313)))
(assert (= "Z" (str.at var49 952)))
(assert (= "^" (str.at var47 89)))
(assert (= "4" (str.at var28 552)))
(assert (= "u" (str.at var11 131)))
(assert (= ">" (str.at var58 601)))
(assert (= "^" (str.at var29 362)))
(assert (= "[" (str.at var1 961)))
(assert (= "R" (str.at var6 673)))
(assert (= "!" (str.at var30 654)))
(assert (= "_" (str.at var21 789)))
(assert (= "f" (str.at var22 582)))
(assert (= "`" (str.at var13 789)))
(assert (= "|" (str.at var10 109)))
(check-sat)